NAME : n20w60.003.352.tour
COMMENT : Length = 352
COMMENT : Found by LKH [Keld Helsgaun] Tue May  2 05:18:25 2017
TYPE : TOUR
DIMENSION : 21
TOUR_SECTION
1
11
12
8
16
10
9
18
14
6
4
5
3
13
19
2
17
20
15
7
21
-1
EOF
